(set-info :smt-lib-version 2.6)
(set-logic UF)
(set-info :source |
Generated by: Andrew Reynolds
Generated on: 2017-04-28
Generator: Sledgehammer, converted to v2.6 by CVC4
Application: Verfication goals in Isabelle
Target solver: CVC4, Z3
Publications: "A Decision Procedure for (Co)Datatypes" by Andrew Reynolds and Jasmin Blanchette, CADE 2015.
|)
(set-info :license "https://creativecommons.org/licenses/by/4.0/")
(set-info :category "industrial")
(set-info :status unknown)


(declare-sort Nat$ 0)
(declare-sort Nat_nat_fun$ 0)
(declare-sort Bool_nat_fun$ 0)
(declare-sort Nat_bool_fun$ 0)
(declare-sort Nat_nat_bool_fun_fun$ 0)
(declare-sort Nat_nat_prod_bool_fun$ 0)
(declare-sort Nat_nat_prod_nat_nat_prod_bool_fun_fun$ 0)
(declare-sort Nat_nat_prod_nat_nat_prod_prod_bool_fun$ 0)
(declare-sort Nat_nat_prod$ 0)
(declare-sort Nat_nat_prod_nat_nat_prod_prod$ 0)
(declare-fun fst$ (Nat_nat_prod$) Nat$)
(declare-fun snd$ (Nat_nat_prod$) Nat$)
(declare-fun pair$ (Nat$ Nat$) Nat_nat_prod$)
(declare-fun fst$a (Nat_nat_prod_nat_nat_prod_prod$) Nat_nat_prod$)
(declare-fun snd$a (Nat_nat_prod_nat_nat_prod_prod$) Nat_nat_prod$)
(declare-fun pair$a (Nat_nat_prod$ Nat_nat_prod$) Nat_nat_prod_nat_nat_prod_prod$)
(declare-fun a$ () Nat_nat_prod$)
(declare-fun b$ () Nat$)
(declare-fun c$ () Nat$)
(declare-fun x$ () Nat_nat_prod_nat_nat_prod_prod$)
(declare-fun y$ () Nat_nat_prod_nat_nat_prod_prod$)
(declare-fun aa$ () Nat_nat_prod$)
(declare-fun ba$ () Nat$)
(declare-fun ca$ () Nat$)
(declare-fun det$ (Nat_nat_prod_nat_nat_prod_prod$) Nat$)
(declare-fun one$ () Nat$)
(declare-fun suc$ (Nat$) Nat$)
(declare-fun fmat$ () Nat_nat_prod_nat_nat_prod_prod$)
(declare-fun imat$ () Nat_nat_prod_nat_nat_prod_prod$)
(declare-fun less$ (Nat$) Nat_bool_fun$)
(declare-fun size$ () Bool_nat_fun$)
(declare-fun swap$ (Nat_nat_prod_nat_nat_prod_prod$) Nat_nat_prod_nat_nat_prod_prod$)
(declare-fun zero$ () Nat$)
(declare-fun lLmat$ () Nat_nat_prod_nat_nat_prod_prod$)
(declare-fun swap$a (Nat_nat_prod$) Nat_nat_prod$)
(declare-fun times$ (Nat$) Nat_nat_fun$)
(declare-fun uRmat$ () Nat_nat_prod_nat_nat_prod_prod$)
(declare-fun mulmat$ (Nat_nat_prod_nat_nat_prod_prod$ Nat_nat_prod_nat_nat_prod_prod$) Nat_nat_prod_nat_nat_prod_prod$)
(declare-fun fun_app$ (Nat_bool_fun$ Nat$) Bool)
(declare-fun mediant$ (Nat_nat_prod_nat_nat_prod_prod$) Nat_nat_prod$)
(declare-fun fun_app$a (Nat_nat_fun$ Nat$) Nat$)
(declare-fun fun_app$b (Nat_nat_prod_nat_nat_prod_prod_bool_fun$ Nat_nat_prod_nat_nat_prod_prod$) Bool)
(declare-fun fun_app$c (Nat_nat_prod_bool_fun$ Nat_nat_prod$) Bool)
(declare-fun fun_app$d (Nat_nat_bool_fun_fun$ Nat$) Nat_bool_fun$)
(declare-fun fun_app$e (Nat_nat_prod_nat_nat_prod_bool_fun_fun$ Nat_nat_prod$) Nat_nat_prod_bool_fun$)
(declare-fun fun_app$f (Bool_nat_fun$ Bool) Nat$)
(declare-fun rec_bool$ (Nat$ Nat$) Bool_nat_fun$)
(declare-fun size_bool$ () Bool_nat_fun$)
(assert (not (fun_app$ (less$ (fun_app$a (times$ (fst$ (mediant$ (mulmat$ (pair$a a$ (pair$ b$ c$)) (mulmat$ lLmat$ (pair$a aa$ (pair$ ba$ ca$))))))) (snd$ (mediant$ (pair$a a$ (pair$ b$ c$)))))) (fun_app$a (times$ (fst$ (mediant$ (pair$a a$ (pair$ b$ c$))))) (snd$ (mediant$ (mulmat$ (pair$a a$ (pair$ b$ c$)) (mulmat$ lLmat$ (pair$a aa$ (pair$ ba$ ca$))))))))))
(assert (= (det$ (pair$a a$ (pair$ b$ c$))) (suc$ zero$)))
(assert (= (det$ (pair$a aa$ (pair$ ba$ ca$))) (suc$ zero$)))
(assert (fun_app$ (less$ zero$) (snd$ (mediant$ (pair$a a$ (pair$ b$ c$))))))
(assert (fun_app$ (less$ zero$) (snd$ (mediant$ (mulmat$ (pair$a a$ (pair$ b$ c$)) (mulmat$ lLmat$ (pair$a aa$ (pair$ ba$ ca$))))))))
(assert (= x$ (pair$a a$ (pair$ b$ c$))))
(assert (= y$ (pair$a aa$ (pair$ ba$ ca$))))
(assert (fun_app$ (less$ zero$) (snd$ (mediant$ x$))))
(assert (forall ((?v0 Nat_nat_prod_nat_nat_prod_prod$) (?v1 Nat_nat_prod_nat_nat_prod_prod$) (?v2 Nat_nat_prod_nat_nat_prod_prod$)) (= (mulmat$ (mulmat$ ?v0 ?v1) ?v2) (mulmat$ ?v0 (mulmat$ ?v1 ?v2))) ))
(assert (= (det$ x$) one$))
(assert (fun_app$ (less$ zero$) (snd$ (mediant$ (mulmat$ (mulmat$ x$ lLmat$) y$)))))
(assert (= (det$ y$) one$))
(assert (forall ((?v0 Nat_nat_prod$)) (=> (and (forall ((?v1 Nat$) (?v2 Nat$)) (=> (and (= ?v1 ?v2) (= ?v0 (pair$ (suc$ ?v1) (suc$ ?v2)))) false) ) (and (forall ((?v1 Nat$) (?v2 Nat$)) (=> (and (fun_app$ (less$ ?v1) ?v2) (= ?v0 (pair$ (suc$ ?v1) (suc$ ?v2)))) false) ) (and (forall ((?v1 Nat$) (?v2 Nat$)) (=> (and (fun_app$ (less$ ?v2) ?v1) (= ?v0 (pair$ (suc$ ?v1) (suc$ ?v2)))) false) ) (and (forall ((?v1 Nat$)) (=> (= ?v0 (pair$ zero$ ?v1)) false) ) (forall ((?v1 Nat$)) (=> (= ?v0 (pair$ ?v1 zero$)) false) ))))) false) ))
(assert (forall ((?v0 Nat_nat_prod_nat_nat_prod_prod$)) (=> (fun_app$ (less$ zero$) (snd$ (mediant$ ?v0))) (fun_app$ (less$ zero$) (snd$ (mediant$ (mulmat$ ?v0 lLmat$))))) ))
(assert (forall ((?v0 Nat_nat_prod_nat_nat_prod_prod$)) (= (pair$a (fst$a ?v0) (snd$a ?v0)) ?v0) ))
(assert (forall ((?v0 Nat_nat_prod$)) (= (pair$ (fst$ ?v0) (snd$ ?v0)) ?v0) ))
(assert (forall ((?v0 Nat$) (?v1 Nat$) (?v2 Nat$)) (= (fun_app$ (less$ (fun_app$a (times$ ?v0) ?v1)) (fun_app$a (times$ ?v0) ?v2)) (and (fun_app$ (less$ zero$) ?v0) (fun_app$ (less$ ?v1) ?v2))) ))
(assert (forall ((?v0 Nat$) (?v1 Nat$) (?v2 Nat$)) (= (fun_app$ (less$ (fun_app$a (times$ ?v0) ?v1)) (fun_app$a (times$ ?v2) ?v1)) (and (fun_app$ (less$ zero$) ?v1) (fun_app$ (less$ ?v0) ?v2))) ))
(assert (forall ((?v0 Nat$) (?v1 Nat$)) (= (fun_app$ (less$ zero$) (fun_app$a (times$ ?v0) ?v1)) (and (fun_app$ (less$ zero$) ?v0) (fun_app$ (less$ zero$) ?v1))) ))
(assert (forall ((?v0 Nat$) (?v1 Nat$)) (= (= (fun_app$a (times$ ?v0) ?v1) (suc$ zero$)) (and (= ?v0 (suc$ zero$)) (= ?v1 (suc$ zero$)))) ))
(assert (forall ((?v0 Nat$) (?v1 Nat$)) (= (= (suc$ zero$) (fun_app$a (times$ ?v0) ?v1)) (and (= ?v0 (suc$ zero$)) (= ?v1 (suc$ zero$)))) ))
(assert (forall ((?v0 Nat$)) (! (= (fun_app$ (less$ ?v0) (suc$ zero$)) (= ?v0 zero$)) :pattern ((less$ ?v0)))))
(assert (forall ((?v0 Nat$)) (fun_app$ (less$ zero$) (suc$ ?v0)) ))
(assert (forall ((?v0 Nat$) (?v1 Nat$) (?v2 Nat$)) (= (= (fun_app$a (times$ ?v0) ?v1) (fun_app$a (times$ ?v2) ?v1)) (or (= ?v0 ?v2) (= ?v1 zero$))) ))
(assert (forall ((?v0 Nat$) (?v1 Nat$) (?v2 Nat$)) (= (= (fun_app$a (times$ ?v0) ?v1) (fun_app$a (times$ ?v0) ?v2)) (or (= ?v1 ?v2) (= ?v0 zero$))) ))
(assert (forall ((?v0 Nat$) (?v1 Nat$)) (= (= (fun_app$a (times$ ?v0) ?v1) zero$) (or (= ?v0 zero$) (= ?v1 zero$))) ))
(assert (forall ((?v0 Nat$)) (! (= (fun_app$a (times$ ?v0) zero$) zero$) :pattern ((times$ ?v0)))))
(assert (forall ((?v0 Nat_nat_prod$) (?v1 Nat_nat_prod$) (?v2 Nat_nat_prod$) (?v3 Nat_nat_prod$)) (= (= (pair$a ?v0 ?v1) (pair$a ?v2 ?v3)) (and (= ?v0 ?v2) (= ?v1 ?v3))) ))
(assert (forall ((?v0 Nat$) (?v1 Nat$) (?v2 Nat$) (?v3 Nat$)) (= (= (pair$ ?v0 ?v1) (pair$ ?v2 ?v3)) (and (= ?v0 ?v2) (= ?v1 ?v3))) ))
(assert (forall ((?v0 Nat_nat_prod$) (?v1 Nat_nat_prod$) (?v2 Nat_nat_prod$) (?v3 Nat_nat_prod$)) (= (= (pair$a ?v0 ?v1) (pair$a ?v2 ?v3)) (and (= ?v0 ?v2) (= ?v1 ?v3))) ))
(assert (forall ((?v0 Nat$) (?v1 Nat$) (?v2 Nat$) (?v3 Nat$)) (= (= (pair$ ?v0 ?v1) (pair$ ?v2 ?v3)) (and (= ?v0 ?v2) (= ?v1 ?v3))) ))
(assert (forall ((?v0 Nat$) (?v1 Nat$)) (= (= (suc$ ?v0) (suc$ ?v1)) (= ?v0 ?v1)) ))
(assert (forall ((?v0 Nat$) (?v1 Nat$)) (= (= (suc$ ?v0) (suc$ ?v1)) (= ?v0 ?v1)) ))
(assert (forall ((?v0 Nat$)) (! (= (fun_app$ (less$ ?v0) zero$) false) :pattern ((less$ ?v0)))))
(assert (forall ((?v0 Nat$)) (= (not (fun_app$ (less$ zero$) ?v0)) (= ?v0 zero$)) ))
(assert (forall ((?v0 Nat$)) (= (not (= ?v0 zero$)) (fun_app$ (less$ zero$) ?v0)) ))
(assert (forall ((?v0 Nat$)) (fun_app$ (less$ ?v0) (suc$ ?v0)) ))
(assert (forall ((?v0 Nat$) (?v1 Nat$)) (=> (fun_app$ (less$ ?v0) ?v1) (fun_app$ (less$ (suc$ ?v0)) (suc$ ?v1))) ))
(assert (forall ((?v0 Nat$) (?v1 Nat$)) (! (= (fun_app$ (less$ (suc$ ?v0)) (suc$ ?v1)) (fun_app$ (less$ ?v0) ?v1)) :pattern ((fun_app$ (less$ (suc$ ?v0)) (suc$ ?v1))))))
(assert (forall ((?v0 Nat$) (?v1 Nat$)) (= (= (fun_app$a (times$ ?v0) ?v1) one$) (and (= ?v0 one$) (= ?v1 one$))) ))
(assert (forall ((?v0 Nat$) (?v1 Nat$)) (= (= one$ (fun_app$a (times$ ?v0) ?v1)) (and (= ?v0 one$) (= ?v1 one$))) ))
(assert (forall ((?v0 Nat$)) (= (fun_app$ (less$ ?v0) one$) (= ?v0 zero$)) ))
(assert (= (det$ lLmat$) one$))
(assert (forall ((?v0 Nat$)) (= (fun_app$a (times$ one$) ?v0) ?v0) ))
(assert (forall ((?v0 Nat$)) (= (fun_app$a (times$ ?v0) one$) ?v0) ))
(assert (= one$ (suc$ zero$)))
(assert (forall ((?v0 Nat$) (?v1 Nat$)) (=> (= ?v0 (fun_app$a (times$ ?v0) ?v1)) (or (= ?v1 one$) (= ?v0 zero$))) ))
(assert (forall ((?v0 Nat_nat_prod_nat_nat_prod_prod$)) (exists ((?v1 Nat_nat_prod$) (?v2 Nat_nat_prod$)) (= ?v0 (pair$a ?v1 ?v2)) ) ))
(assert (forall ((?v0 Nat_nat_prod$)) (exists ((?v1 Nat$) (?v2 Nat$)) (= ?v0 (pair$ ?v1 ?v2)) ) ))
(assert (forall ((?v0 Nat_nat_prod$) (?v1 Nat_nat_prod$) (?v2 Nat_nat_prod$) (?v3 Nat_nat_prod$)) (=> (and (= (pair$a ?v0 ?v1) (pair$a ?v2 ?v3)) (=> (and (= ?v0 ?v2) (= ?v1 ?v3)) false)) false) ))
(assert (forall ((?v0 Nat$) (?v1 Nat$) (?v2 Nat$) (?v3 Nat$)) (=> (and (= (pair$ ?v0 ?v1) (pair$ ?v2 ?v3)) (=> (and (= ?v0 ?v2) (= ?v1 ?v3)) false)) false) ))
(assert (forall ((?v0 Nat_nat_prod_nat_nat_prod_prod_bool_fun$) (?v1 Nat_nat_prod_nat_nat_prod_prod$)) (=> (forall ((?v2 Nat_nat_prod$) (?v3 Nat_nat_prod$)) (fun_app$b ?v0 (pair$a ?v2 ?v3)) ) (fun_app$b ?v0 ?v1)) ))
(assert (forall ((?v0 Nat_nat_prod_bool_fun$) (?v1 Nat_nat_prod$)) (=> (forall ((?v2 Nat$) (?v3 Nat$)) (fun_app$c ?v0 (pair$ ?v2 ?v3)) ) (fun_app$c ?v0 ?v1)) ))
(assert (forall ((?v0 Nat_nat_prod_nat_nat_prod_prod$)) (=> (forall ((?v1 Nat_nat_prod$) (?v2 Nat_nat_prod$)) (=> (= ?v0 (pair$a ?v1 ?v2)) false) ) false) ))
(assert (forall ((?v0 Nat_nat_prod$)) (=> (forall ((?v1 Nat$) (?v2 Nat$)) (=> (= ?v0 (pair$ ?v1 ?v2)) false) ) false) ))
(assert (forall ((?v0 Nat$)) (=> (and (=> (= ?v0 zero$) false) (=> (not (= ?v0 zero$)) false)) false) ))
(assert (forall ((?v0 Nat$)) (not (= ?v0 (suc$ ?v0))) ))
(assert (forall ((?v0 Nat$) (?v1 Nat$)) (=> (= (suc$ ?v0) (suc$ ?v1)) (= ?v0 ?v1)) ))
(assert (forall ((?v0 Nat$)) (not (fun_app$ (less$ ?v0) ?v0)) ))
(assert (forall ((?v0 Nat$) (?v1 Nat$)) (=> (and (not (= ?v0 ?v1)) (and (=> (fun_app$ (less$ ?v0) ?v1) false) (=> (fun_app$ (less$ ?v1) ?v0) false))) false) ))
(assert (forall ((?v0 Nat$)) (=> (fun_app$ (less$ ?v0) ?v0) false) ))
(assert (forall ((?v0 Nat$) (?v1 Nat$)) (=> (fun_app$ (less$ ?v0) ?v1) (not (= ?v1 ?v0))) ))
(assert (forall ((?v0 Nat$) (?v1 Nat$)) (=> (fun_app$ (less$ ?v0) ?v1) (not (= ?v0 ?v1))) ))
(assert (forall ((?v0 Nat_bool_fun$) (?v1 Nat$)) (=> (forall ((?v2 Nat$)) (=> (forall ((?v3 Nat$)) (=> (fun_app$ (less$ ?v3) ?v2) (fun_app$ ?v0 ?v3)) ) (fun_app$ ?v0 ?v2)) ) (fun_app$ ?v0 ?v1)) ))
(assert (forall ((?v0 Nat_bool_fun$) (?v1 Nat$)) (=> (forall ((?v2 Nat$)) (=> (not (fun_app$ ?v0 ?v2)) (exists ((?v3 Nat$)) (and (fun_app$ (less$ ?v3) ?v2) (not (fun_app$ ?v0 ?v3))) )) ) (fun_app$ ?v0 ?v1)) ))
(assert (forall ((?v0 Nat$) (?v1 Nat$) (?v2 Nat_nat_bool_fun_fun$)) (=> (and (=> (fun_app$ (less$ ?v0) ?v1) (fun_app$ (fun_app$d ?v2 ?v1) ?v0)) (and (=> (= ?v0 ?v1) (fun_app$ (fun_app$d ?v2 ?v1) ?v0)) (=> (fun_app$ (less$ ?v1) ?v0) (fun_app$ (fun_app$d ?v2 ?v1) ?v0)))) (fun_app$ (fun_app$d ?v2 ?v1) ?v0)) ))
(assert (forall ((?v0 Nat$) (?v1 Nat$)) (= (not (= ?v0 ?v1)) (or (fun_app$ (less$ ?v0) ?v1) (fun_app$ (less$ ?v1) ?v0))) ))
(assert (forall ((?v0 Nat_nat_prod_nat_nat_prod_prod$)) (=> (= (det$ ?v0) one$) (= (det$ (mulmat$ lLmat$ ?v0)) one$)) ))
(assert (forall ((?v0 Nat_nat_prod_nat_nat_prod_prod$)) (=> (= (det$ ?v0) one$) (= (det$ (mulmat$ ?v0 lLmat$)) one$)) ))
(assert (= lLmat$ (pair$a (pair$ one$ one$) (pair$ zero$ one$))))
(assert (forall ((?v0 Nat$)) (not (= zero$ (suc$ ?v0))) ))
(assert (forall ((?v0 Nat$)) (not (= (suc$ ?v0) zero$)) ))
(assert (forall ((?v0 Nat$)) (not (= zero$ (suc$ ?v0))) ))
(assert (forall ((?v0 Nat$)) (not (= zero$ (suc$ ?v0))) ))
(assert (forall ((?v0 Nat_bool_fun$) (?v1 Nat$)) (=> (and (fun_app$ ?v0 zero$) (forall ((?v2 Nat$)) (=> (fun_app$ ?v0 ?v2) (fun_app$ ?v0 (suc$ ?v2))) )) (fun_app$ ?v0 ?v1)) ))
(assert (forall ((?v0 Nat_bool_fun$) (?v1 Nat$)) (=> (and (fun_app$ ?v0 ?v1) (forall ((?v2 Nat$)) (=> (fun_app$ ?v0 (suc$ ?v2)) (fun_app$ ?v0 ?v2)) )) (fun_app$ ?v0 zero$)) ))
(assert (forall ((?v0 Nat$)) (=> (not (= ?v0 zero$)) (exists ((?v1 Nat$)) (= ?v0 (suc$ ?v1)) )) ))
(assert (forall ((?v0 Nat$)) (=> (= zero$ (suc$ ?v0)) false) ))
(assert (forall ((?v0 Nat$) (?v1 Nat$)) (=> (= ?v0 (suc$ ?v1)) (not (= ?v0 zero$))) ))
(assert (forall ((?v0 Nat$)) (=> (= (suc$ ?v0) zero$) false) ))
(assert (forall ((?v0 Nat_nat_bool_fun_fun$) (?v1 Nat$) (?v2 Nat$)) (=> (and (forall ((?v3 Nat$)) (fun_app$ (fun_app$d ?v0 ?v3) zero$) ) (and (forall ((?v3 Nat$)) (fun_app$ (fun_app$d ?v0 zero$) (suc$ ?v3)) ) (forall ((?v3 Nat$) (?v4 Nat$)) (=> (fun_app$ (fun_app$d ?v0 ?v3) ?v4) (fun_app$ (fun_app$d ?v0 (suc$ ?v3)) (suc$ ?v4))) ))) (fun_app$ (fun_app$d ?v0 ?v1) ?v2)) ))
(assert (forall ((?v0 Nat$)) (=> (and (=> (= ?v0 zero$) false) (forall ((?v1 Nat$)) (=> (= ?v0 (suc$ ?v1)) false) )) false) ))
(assert (forall ((?v0 Nat$)) (not (fun_app$ (less$ ?v0) zero$)) ))
(assert (forall ((?v0 Nat_bool_fun$) (?v1 Nat$)) (=> (and (fun_app$ ?v0 zero$) (forall ((?v2 Nat$)) (=> (and (fun_app$ (less$ zero$) ?v2) (not (fun_app$ ?v0 ?v2))) (exists ((?v3 Nat$)) (and (fun_app$ (less$ ?v3) ?v2) (not (fun_app$ ?v0 ?v3))) )) )) (fun_app$ ?v0 ?v1)) ))
(assert (forall ((?v0 Nat$)) (=> (fun_app$ (less$ ?v0) zero$) false) ))
(assert (forall ((?v0 Nat$) (?v1 Nat$)) (=> (fun_app$ (less$ ?v0) ?v1) (not (= ?v1 zero$))) ))
(assert (forall ((?v0 Nat$)) (=> (=> (= ?v0 zero$) false) (fun_app$ (less$ zero$) ?v0)) ))
(assert (forall ((?v0 Nat$) (?v1 Nat$)) (! (=> (not (fun_app$ (less$ ?v0) ?v1)) (= (fun_app$ (less$ ?v0) (suc$ ?v1)) (= ?v0 ?v1))) :pattern ((fun_app$ (less$ ?v0) (suc$ ?v1))))))
(assert (forall ((?v0 Nat$) (?v1 Nat$)) (=> (and (not (fun_app$ (less$ ?v0) ?v1)) (fun_app$ (less$ ?v0) (suc$ ?v1))) (= ?v1 ?v0)) ))
(assert (forall ((?v0 Nat$) (?v1 Nat$)) (=> (fun_app$ (less$ ?v0) ?v1) (fun_app$ (less$ ?v0) (suc$ ?v1))) ))
(assert (forall ((?v0 Nat$) (?v1 Nat$)) (=> (and (fun_app$ (less$ ?v0) ?v1) (not (= (suc$ ?v0) ?v1))) (fun_app$ (less$ (suc$ ?v0)) ?v1)) ))
(assert (forall ((?v0 Nat$) (?v1 Nat$) (?v2 Nat$)) (=> (and (fun_app$ (less$ ?v0) ?v1) (fun_app$ (less$ ?v1) ?v2)) (fun_app$ (less$ (suc$ ?v0)) ?v2)) ))
(assert (forall ((?v0 Nat$) (?v1 Nat$) (?v2 Nat_nat_bool_fun_fun$)) (=> (and (fun_app$ (less$ ?v0) ?v1) (and (forall ((?v3 Nat$)) (fun_app$ (fun_app$d ?v2 ?v3) (suc$ ?v3)) ) (forall ((?v3 Nat$) (?v4 Nat$) (?v5 Nat$)) (=> (and (fun_app$ (less$ ?v3) ?v4) (and (fun_app$ (less$ ?v4) ?v5) (and (fun_app$ (fun_app$d ?v2 ?v3) ?v4) (fun_app$ (fun_app$d ?v2 ?v4) ?v5)))) (fun_app$ (fun_app$d ?v2 ?v3) ?v5)) ))) (fun_app$ (fun_app$d ?v2 ?v0) ?v1)) ))
(assert (forall ((?v0 Nat$) (?v1 Nat$) (?v2 Nat_bool_fun$)) (=> (and (fun_app$ (less$ ?v0) ?v1) (and (forall ((?v3 Nat$)) (=> (= ?v1 (suc$ ?v3)) (fun_app$ ?v2 ?v3)) ) (forall ((?v3 Nat$)) (=> (and (fun_app$ (less$ ?v3) ?v1) (fun_app$ ?v2 (suc$ ?v3))) (fun_app$ ?v2 ?v3)) ))) (fun_app$ ?v2 ?v0)) ))
(assert (forall ((?v0 Nat$) (?v1 Nat$)) (=> (and (fun_app$ (less$ ?v0) ?v1) (and (=> (= ?v1 (suc$ ?v0)) false) (forall ((?v2 Nat$)) (=> (and (fun_app$ (less$ ?v0) ?v2) (= ?v1 (suc$ ?v2))) false) ))) false) ))
(assert (forall ((?v0 Nat$) (?v1 Nat$)) (=> (and (fun_app$ (less$ ?v0) (suc$ ?v1)) (and (=> (fun_app$ (less$ ?v0) ?v1) false) (=> (= ?v0 ?v1) false))) false) ))
(assert (forall ((?v0 Nat$) (?v1 Nat$)) (=> (fun_app$ (less$ (suc$ ?v0)) ?v1) (fun_app$ (less$ ?v0) ?v1)) ))
(assert (forall ((?v0 Nat$) (?v1 Nat$)) (=> (and (fun_app$ (less$ (suc$ ?v0)) ?v1) (forall ((?v2 Nat$)) (=> (and (fun_app$ (less$ ?v0) ?v2) (= ?v1 (suc$ ?v2))) false) )) false) ))
(assert (forall ((?v0 Nat$) (?v1 Nat$)) (=> (fun_app$ (less$ (suc$ ?v0)) (suc$ ?v1)) (fun_app$ (less$ ?v0) ?v1)) ))
(assert (forall ((?v0 Nat$) (?v1 Nat$)) (= (not (fun_app$ (less$ ?v0) ?v1)) (fun_app$ (less$ ?v1) (suc$ ?v0))) ))
(assert (forall ((?v0 Nat$) (?v1 Nat$)) (= (fun_app$ (less$ (suc$ ?v0)) ?v1) (exists ((?v2 Nat$)) (and (= ?v1 (suc$ ?v2)) (fun_app$ (less$ ?v0) ?v2)) )) ))
(assert (forall ((?v0 Nat$) (?v1 Nat$)) (! (= (fun_app$ (less$ ?v0) (suc$ ?v1)) (or (fun_app$ (less$ ?v0) ?v1) (= ?v0 ?v1))) :pattern ((fun_app$ (less$ ?v0) (suc$ ?v1))))))
(assert (forall ((?v0 Nat_nat_prod$) (?v1 Nat_nat_prod$) (?v2 Nat_nat_prod$)) (=> (= (snd$a (pair$a ?v0 ?v1)) ?v2) (= ?v1 ?v2)) ))
(assert (forall ((?v0 Nat$) (?v1 Nat$) (?v2 Nat$)) (=> (= (snd$ (pair$ ?v0 ?v1)) ?v2) (= ?v1 ?v2)) ))
(assert (forall ((?v0 Nat_nat_prod$) (?v1 Nat_nat_prod$)) (! (= (snd$a (pair$a ?v0 ?v1)) ?v1) :pattern ((pair$a ?v0 ?v1)))))
(assert (forall ((?v0 Nat$) (?v1 Nat$)) (! (= (snd$ (pair$ ?v0 ?v1)) ?v1) :pattern ((pair$ ?v0 ?v1)))))
(assert (forall ((?v0 Nat_nat_prod$) (?v1 Nat_nat_prod$) (?v2 Nat_nat_prod$)) (=> (= (fst$a (pair$a ?v0 ?v1)) ?v2) (= ?v0 ?v2)) ))
(assert (forall ((?v0 Nat$) (?v1 Nat$) (?v2 Nat$)) (=> (= (fst$ (pair$ ?v0 ?v1)) ?v2) (= ?v0 ?v2)) ))
(assert (forall ((?v0 Nat_nat_prod$) (?v1 Nat_nat_prod$)) (! (= (fst$a (pair$a ?v0 ?v1)) ?v0) :pattern ((pair$a ?v0 ?v1)))))
(assert (forall ((?v0 Nat$) (?v1 Nat$)) (! (= (fst$ (pair$ ?v0 ?v1)) ?v0) :pattern ((pair$ ?v0 ?v1)))))
(assert (forall ((?v0 Nat$)) (! (= (fun_app$a (times$ zero$) ?v0) zero$) :pattern ((fun_app$a (times$ zero$) ?v0)))))
(assert (forall ((?v0 Nat$) (?v1 Nat$) (?v2 Nat$)) (= (= (fun_app$a (times$ ?v0) ?v1) (fun_app$a (times$ ?v0) ?v2)) (or (= ?v0 zero$) (= ?v1 ?v2))) ))
(assert (forall ((?v0 Nat$) (?v1 Nat$) (?v2 Nat$)) (= (= (fun_app$a (times$ (suc$ ?v0)) ?v1) (fun_app$a (times$ (suc$ ?v0)) ?v2)) (= ?v1 ?v2)) ))
(assert (forall ((?v0 Nat_nat_prod_nat_nat_prod_prod$)) (=> (forall ((?v1 Nat_nat_prod$) (?v2 Nat$) (?v3 Nat$)) (=> (= ?v0 (pair$a ?v1 (pair$ ?v2 ?v3))) false) ) false) ))
(assert (forall ((?v0 Nat_nat_prod_nat_nat_prod_prod_bool_fun$) (?v1 Nat_nat_prod_nat_nat_prod_prod$)) (=> (forall ((?v2 Nat_nat_prod$) (?v3 Nat$) (?v4 Nat$)) (fun_app$b ?v0 (pair$a ?v2 (pair$ ?v3 ?v4))) ) (fun_app$b ?v0 ?v1)) ))
(assert (forall ((?v0 Nat_nat_prod_nat_nat_prod_prod$) (?v1 Nat_nat_prod_nat_nat_prod_prod$)) (=> (and (= (fst$a ?v0) (fst$a ?v1)) (= (snd$a ?v0) (snd$a ?v1))) (= ?v0 ?v1)) ))
(assert (forall ((?v0 Nat_nat_prod$) (?v1 Nat_nat_prod$)) (=> (and (= (fst$ ?v0) (fst$ ?v1)) (= (snd$ ?v0) (snd$ ?v1))) (= ?v0 ?v1)) ))
(assert (forall ((?v0 Nat_nat_prod_nat_nat_prod_prod$) (?v1 Nat_nat_prod_nat_nat_prod_prod$)) (=> (and (= (fst$a ?v0) (fst$a ?v1)) (= (snd$a ?v0) (snd$a ?v1))) (= ?v0 ?v1)) ))
(assert (forall ((?v0 Nat_nat_prod$) (?v1 Nat_nat_prod$)) (=> (and (= (fst$ ?v0) (fst$ ?v1)) (= (snd$ ?v0) (snd$ ?v1))) (= ?v0 ?v1)) ))
(assert (forall ((?v0 Nat_nat_prod_nat_nat_prod_prod$) (?v1 Nat_nat_prod_nat_nat_prod_prod$)) (= (= ?v0 ?v1) (and (= (fst$a ?v0) (fst$a ?v1)) (= (snd$a ?v0) (snd$a ?v1)))) ))
(assert (forall ((?v0 Nat_nat_prod$) (?v1 Nat_nat_prod$)) (= (= ?v0 ?v1) (and (= (fst$ ?v0) (fst$ ?v1)) (= (snd$ ?v0) (snd$ ?v1)))) ))
(assert (forall ((?v0 Nat_nat_fun$) (?v1 Nat$) (?v2 Nat$)) (=> (forall ((?v3 Nat$)) (fun_app$ (less$ (fun_app$a ?v0 ?v3)) (fun_app$a ?v0 (suc$ ?v3))) ) (= (fun_app$ (less$ (fun_app$a ?v0 ?v1)) (fun_app$a ?v0 ?v2)) (fun_app$ (less$ ?v1) ?v2))) ))
(assert (forall ((?v0 Nat_nat_fun$) (?v1 Nat$) (?v2 Nat$)) (=> (and (forall ((?v3 Nat$)) (fun_app$ (less$ (fun_app$a ?v0 ?v3)) (fun_app$a ?v0 (suc$ ?v3))) ) (fun_app$ (less$ ?v1) ?v2)) (fun_app$ (less$ (fun_app$a ?v0 ?v1)) (fun_app$a ?v0 ?v2))) ))
(assert (forall ((?v0 Nat$)) (=> (fun_app$ (less$ zero$) ?v0) (exists ((?v1 Nat$)) (= ?v0 (suc$ ?v1)) )) ))
(assert (forall ((?v0 Nat$)) (= (fun_app$ (less$ zero$) ?v0) (exists ((?v1 Nat$)) (= ?v0 (suc$ ?v1)) )) ))
(assert (forall ((?v0 Nat$) (?v1 Nat$)) (= (fun_app$ (less$ ?v0) (suc$ ?v1)) (or (= ?v0 zero$) (exists ((?v2 Nat$)) (and (= ?v0 (suc$ ?v2)) (fun_app$ (less$ ?v2) ?v1)) ))) ))
(assert (forall ((?v0 Nat$) (?v1 Nat$) (?v2 Nat$)) (=> (fun_app$ (less$ zero$) ?v0) (= (fun_app$ (less$ (fun_app$a (times$ ?v0) ?v1)) (fun_app$a (times$ ?v0) ?v2)) (fun_app$ (less$ ?v1) ?v2))) ))
(assert (forall ((?v0 Nat$) (?v1 Nat$) (?v2 Nat$)) (=> (fun_app$ (less$ zero$) ?v0) (= (= (fun_app$a (times$ ?v0) ?v1) (fun_app$a (times$ ?v0) ?v2)) (= ?v1 ?v2))) ))
(assert (forall ((?v0 Nat$) (?v1 Nat$) (?v2 Nat$)) (=> (and (fun_app$ (less$ ?v0) ?v1) (fun_app$ (less$ zero$) ?v2)) (fun_app$ (less$ (fun_app$a (times$ ?v0) ?v2)) (fun_app$a (times$ ?v1) ?v2))) ))
(assert (forall ((?v0 Nat$) (?v1 Nat$) (?v2 Nat$)) (=> (and (fun_app$ (less$ ?v0) ?v1) (fun_app$ (less$ zero$) ?v2)) (fun_app$ (less$ (fun_app$a (times$ ?v2) ?v0)) (fun_app$a (times$ ?v2) ?v1))) ))
(assert (forall ((?v0 Nat$) (?v1 Nat$) (?v2 Nat$)) (= (fun_app$ (less$ (fun_app$a (times$ (suc$ ?v0)) ?v1)) (fun_app$a (times$ (suc$ ?v0)) ?v2)) (fun_app$ (less$ ?v1) ?v2)) ))
(assert (forall ((?v0 Nat_nat_prod_nat_nat_prod_prod$)) (=> (=> (= ?v0 (pair$a (fst$a ?v0) (snd$a ?v0))) false) false) ))
(assert (forall ((?v0 Nat_nat_prod$)) (=> (=> (= ?v0 (pair$ (fst$ ?v0) (snd$ ?v0))) false) false) ))
(assert (forall ((?v0 Nat_nat_prod_nat_nat_prod_prod$)) (= ?v0 (pair$a (fst$a ?v0) (snd$a ?v0))) ))
(assert (forall ((?v0 Nat_nat_prod$)) (= ?v0 (pair$ (fst$ ?v0) (snd$ ?v0))) ))
(assert (forall ((?v0 Nat$) (?v1 Nat$)) (=> (and (fun_app$ (less$ (suc$ zero$)) ?v0) (fun_app$ (less$ (suc$ zero$)) ?v1)) (fun_app$ (less$ ?v0) (fun_app$a (times$ ?v1) ?v0))) ))
(assert (forall ((?v0 Nat$) (?v1 Nat$)) (=> (and (fun_app$ (less$ (suc$ zero$)) ?v0) (fun_app$ (less$ (suc$ zero$)) ?v1)) (fun_app$ (less$ ?v0) (fun_app$a (times$ ?v0) ?v1))) ))
(assert (forall ((?v0 Nat$) (?v1 Nat$)) (=> (and (fun_app$ (less$ (suc$ zero$)) ?v0) (fun_app$ (less$ (suc$ zero$)) ?v1)) (fun_app$ (less$ (suc$ zero$)) (fun_app$a (times$ ?v1) ?v0))) ))
(assert (= (mediant$ fmat$) (pair$ one$ one$)))
(assert (= fmat$ (pair$a (pair$ zero$ one$) (pair$ one$ zero$))))
(assert (forall ((?v0 Nat$)) (= (fun_app$a (times$ one$) ?v0) ?v0) ))
(assert (forall ((?v0 Nat$)) (= (fun_app$a (times$ ?v0) one$) ?v0) ))
(assert (forall ((?v0 Nat$)) (= (fun_app$a (times$ zero$) ?v0) zero$) ))
(assert (forall ((?v0 Nat$)) (= (fun_app$a (times$ ?v0) zero$) zero$) ))
(assert (forall ((?v0 Nat$) (?v1 Nat$) (?v2 Nat$)) (= (= (fun_app$a (times$ ?v0) ?v1) (fun_app$a (times$ ?v2) ?v1)) (or (= ?v1 zero$) (= ?v0 ?v2))) ))
(assert (forall ((?v0 Nat$) (?v1 Nat$) (?v2 Nat$)) (= (= (fun_app$a (times$ ?v0) ?v1) (fun_app$a (times$ ?v0) ?v2)) (or (= ?v0 zero$) (= ?v1 ?v2))) ))
(assert (forall ((?v0 Nat$) (?v1 Nat$)) (= (= (fun_app$a (times$ ?v0) ?v1) zero$) (or (= ?v0 zero$) (= ?v1 zero$))) ))
(assert (forall ((?v0 Nat$)) (= (= zero$ ?v0) (= ?v0 zero$)) ))
(assert (forall ((?v0 Nat$) (?v1 Nat$) (?v2 Nat$)) (= (fun_app$a (times$ (fun_app$a (times$ ?v0) ?v1)) ?v2) (fun_app$a (times$ ?v0) (fun_app$a (times$ ?v1) ?v2))) ))
(assert (forall ((?v0 Nat$) (?v1 Nat$) (?v2 Nat$)) (= (fun_app$a (times$ (fun_app$a (times$ ?v0) ?v1)) ?v2) (fun_app$a (times$ ?v0) (fun_app$a (times$ ?v1) ?v2))) ))
(assert (forall ((?v0 Nat$) (?v1 Nat$) (?v2 Nat$)) (= (fun_app$a (times$ ?v0) (fun_app$a (times$ ?v1) ?v2)) (fun_app$a (times$ ?v1) (fun_app$a (times$ ?v0) ?v2))) ))
(assert (forall ((?v0 Nat$) (?v1 Nat$)) (= (fun_app$a (times$ ?v0) ?v1) (fun_app$a (times$ ?v1) ?v0)) ))
(assert (forall ((?v0 Nat$)) (= (= one$ ?v0) (= ?v0 one$)) ))
(assert (forall ((?v0 Nat$) (?v1 Nat$)) (=> (= (fun_app$a (times$ ?v0) ?v1) zero$) (or (= ?v0 zero$) (= ?v1 zero$))) ))
(assert (forall ((?v0 Nat$) (?v1 Nat$)) (=> (not (= (fun_app$a (times$ ?v0) ?v1) zero$)) (and (not (= ?v0 zero$)) (not (= ?v1 zero$)))) ))
(assert (forall ((?v0 Nat$) (?v1 Nat$)) (=> (and (not (= ?v0 zero$)) (not (= ?v1 zero$))) (not (= (fun_app$a (times$ ?v0) ?v1) zero$))) ))
(assert (forall ((?v0 Nat$) (?v1 Nat$) (?v2 Nat$)) (=> (not (= ?v0 zero$)) (= (= (fun_app$a (times$ ?v1) ?v0) (fun_app$a (times$ ?v2) ?v0)) (= ?v1 ?v2))) ))
(assert (forall ((?v0 Nat$) (?v1 Nat$) (?v2 Nat$)) (=> (not (= ?v0 zero$)) (= (= (fun_app$a (times$ ?v0) ?v1) (fun_app$a (times$ ?v0) ?v2)) (= ?v1 ?v2))) ))
(assert (not (= zero$ one$)))
(assert (forall ((?v0 Nat$)) (= (fun_app$a (times$ ?v0) one$) ?v0) ))
(assert (forall ((?v0 Nat$)) (= (fun_app$a (times$ one$) ?v0) ?v0) ))
(assert (forall ((?v0 Nat$) (?v1 Nat$) (?v2 Nat$)) (=> (and (fun_app$ (less$ ?v0) ?v1) (fun_app$ (less$ zero$) ?v2)) (fun_app$ (less$ (fun_app$a (times$ ?v2) ?v0)) (fun_app$a (times$ ?v2) ?v1))) ))
(assert (forall ((?v0 Nat$) (?v1 Nat$) (?v2 Nat$)) (=> (and (fun_app$ (less$ ?v0) ?v1) (fun_app$ (less$ zero$) ?v2)) (fun_app$ (less$ (fun_app$a (times$ ?v0) ?v2)) (fun_app$a (times$ ?v1) ?v2))) ))
(assert (forall ((?v0 Nat$) (?v1 Nat$) (?v2 Nat$)) (=> (and (fun_app$ (less$ ?v0) ?v1) (fun_app$ (less$ zero$) ?v2)) (fun_app$ (less$ (fun_app$a (times$ ?v2) ?v0)) (fun_app$a (times$ ?v2) ?v1))) ))
(assert (forall ((?v0 Nat$) (?v1 Nat$)) (=> (and (fun_app$ (less$ ?v0) zero$) (fun_app$ (less$ zero$) ?v1)) (fun_app$ (less$ (fun_app$a (times$ ?v0) ?v1)) zero$)) ))
(assert (forall ((?v0 Nat$) (?v1 Nat$)) (=> (and (fun_app$ (less$ zero$) (fun_app$a (times$ ?v0) ?v1)) (fun_app$ (less$ zero$) ?v1)) (fun_app$ (less$ zero$) ?v0)) ))
(assert (forall ((?v0 Nat$) (?v1 Nat$)) (=> (and (fun_app$ (less$ zero$) (fun_app$a (times$ ?v0) ?v1)) (fun_app$ (less$ zero$) ?v0)) (fun_app$ (less$ zero$) ?v1)) ))
(assert (forall ((?v0 Nat$) (?v1 Nat$)) (=> (and (fun_app$ (less$ zero$) ?v0) (fun_app$ (less$ ?v1) zero$)) (fun_app$ (less$ (fun_app$a (times$ ?v1) ?v0)) zero$)) ))
(assert (forall ((?v0 Nat$) (?v1 Nat$)) (=> (and (fun_app$ (less$ zero$) ?v0) (fun_app$ (less$ ?v1) zero$)) (fun_app$ (less$ (fun_app$a (times$ ?v0) ?v1)) zero$)) ))
(assert (forall ((?v0 Nat$) (?v1 Nat$)) (=> (and (fun_app$ (less$ zero$) ?v0) (fun_app$ (less$ zero$) ?v1)) (fun_app$ (less$ zero$) (fun_app$a (times$ ?v0) ?v1))) ))
(assert (fun_app$ (less$ zero$) one$))
(assert (not (fun_app$ (less$ one$) zero$)))
(assert (forall ((?v0 Nat$) (?v1 Nat$)) (=> (and (fun_app$ (less$ one$) ?v0) (fun_app$ (less$ one$) ?v1)) (fun_app$ (less$ one$) (fun_app$a (times$ ?v0) ?v1))) ))
(assert (forall ((?v0 Nat_nat_prod_nat_nat_prod_prod$)) (=> (fun_app$ (less$ zero$) (snd$ (mediant$ ?v0))) (fun_app$ (less$ zero$) (snd$ (mediant$ (mulmat$ ?v0 uRmat$))))) ))
(assert (= (mediant$ imat$) (pair$ one$ one$)))
(assert (forall ((?v0 Nat_nat_prod_nat_nat_prod_bool_fun_fun$) (?v1 Nat_nat_prod$) (?v2 Nat_nat_prod$) (?v3 Nat_nat_prod_nat_nat_prod_prod$)) (=> (and (fun_app$c (fun_app$e ?v0 ?v1) ?v2) (= ?v3 (pair$a ?v1 ?v2))) (fun_app$c (fun_app$e ?v0 (fst$a ?v3)) (snd$a ?v3))) ))
(assert (forall ((?v0 Nat_nat_bool_fun_fun$) (?v1 Nat$) (?v2 Nat$) (?v3 Nat_nat_prod$)) (=> (and (fun_app$ (fun_app$d ?v0 ?v1) ?v2) (= ?v3 (pair$ ?v1 ?v2))) (fun_app$ (fun_app$d ?v0 (fst$ ?v3)) (snd$ ?v3))) ))
(assert (forall ((?v0 Nat_nat_prod_nat_nat_prod_prod$)) (= (mulmat$ imat$ ?v0) ?v0) ))
(assert (forall ((?v0 Nat_nat_prod_nat_nat_prod_prod$)) (= (mulmat$ ?v0 imat$) ?v0) ))
(assert (= (det$ uRmat$) one$))
(assert (= (det$ imat$) one$))
(assert (forall ((?v0 Nat_nat_prod_nat_nat_prod_prod$)) (=> (= (det$ ?v0) one$) (= (det$ (mulmat$ uRmat$ ?v0)) one$)) ))
(assert (forall ((?v0 Nat_nat_prod_nat_nat_prod_prod$)) (=> (= (det$ ?v0) one$) (= (det$ (mulmat$ ?v0 uRmat$)) one$)) ))
(assert (= uRmat$ (pair$a (pair$ one$ zero$) (pair$ one$ one$))))
(assert (= imat$ (pair$a (pair$ one$ zero$) (pair$ zero$ one$))))
(assert (forall ((?v0 Nat_nat_prod_nat_nat_prod_bool_fun_fun$) (?v1 Nat_nat_prod$) (?v2 Nat_nat_prod$)) (=> (fun_app$c (fun_app$e ?v0 ?v1) ?v2) (fun_app$c (fun_app$e ?v0 (snd$a (pair$a ?v2 ?v1))) (fst$a (pair$a ?v2 ?v1)))) ))
(assert (forall ((?v0 Nat_nat_bool_fun_fun$) (?v1 Nat$) (?v2 Nat$)) (=> (fun_app$ (fun_app$d ?v0 ?v1) ?v2) (fun_app$ (fun_app$d ?v0 (snd$ (pair$ ?v2 ?v1))) (fst$ (pair$ ?v2 ?v1)))) ))
(assert (forall ((?v0 Nat_nat_prod_bool_fun$) (?v1 Nat_nat_prod$) (?v2 Nat_nat_prod_bool_fun$) (?v3 Nat_nat_prod$)) (=> (and (fun_app$c ?v0 ?v1) (fun_app$c ?v2 ?v3)) (and (fun_app$c ?v0 (fst$a (pair$a ?v1 ?v3))) (fun_app$c ?v2 (snd$a (pair$a ?v1 ?v3))))) ))
(assert (forall ((?v0 Nat_bool_fun$) (?v1 Nat$) (?v2 Nat_bool_fun$) (?v3 Nat$)) (=> (and (fun_app$ ?v0 ?v1) (fun_app$ ?v2 ?v3)) (and (fun_app$ ?v0 (fst$ (pair$ ?v1 ?v3))) (fun_app$ ?v2 (snd$ (pair$ ?v1 ?v3))))) ))
(assert (forall ((?v0 Nat_nat_prod_nat_nat_prod_bool_fun_fun$) (?v1 Nat_nat_prod_nat_nat_prod_prod$)) (=> (and (fun_app$c (fun_app$e ?v0 (snd$a ?v1)) (fst$a ?v1)) (forall ((?v2 Nat_nat_prod$) (?v3 Nat_nat_prod$)) (=> (fun_app$c (fun_app$e ?v0 ?v3) ?v2) false) )) false) ))
(assert (forall ((?v0 Nat_nat_bool_fun_fun$) (?v1 Nat_nat_prod$)) (=> (and (fun_app$ (fun_app$d ?v0 (snd$ ?v1)) (fst$ ?v1)) (forall ((?v2 Nat$) (?v3 Nat$)) (=> (fun_app$ (fun_app$d ?v0 ?v3) ?v2) false) )) false) ))
(assert (forall ((?v0 Nat_nat_prod_nat_nat_prod_prod$) (?v1 Nat_nat_prod$) (?v2 Nat_nat_prod$)) (=> (= ?v0 (pair$a ?v1 ?v2)) (= (fst$a ?v0) ?v1)) ))
(assert (forall ((?v0 Nat_nat_prod$) (?v1 Nat$) (?v2 Nat$)) (=> (= ?v0 (pair$ ?v1 ?v2)) (= (fst$ ?v0) ?v1)) ))
(assert (forall ((?v0 Nat_nat_prod$) (?v1 Nat_nat_prod_nat_nat_prod_prod$)) (= (= ?v0 (fst$a ?v1)) (exists ((?v2 Nat_nat_prod$)) (= ?v1 (pair$a ?v0 ?v2)) )) ))
(assert (forall ((?v0 Nat$) (?v1 Nat_nat_prod$)) (= (= ?v0 (fst$ ?v1)) (exists ((?v2 Nat$)) (= ?v1 (pair$ ?v0 ?v2)) )) ))
(assert (forall ((?v0 Nat_nat_prod$) (?v1 Nat_nat_prod_nat_nat_prod_prod$)) (= (= ?v0 (snd$a ?v1)) (exists ((?v2 Nat_nat_prod$)) (= ?v1 (pair$a ?v2 ?v0)) )) ))
(assert (forall ((?v0 Nat$) (?v1 Nat_nat_prod$)) (= (= ?v0 (snd$ ?v1)) (exists ((?v2 Nat$)) (= ?v1 (pair$ ?v2 ?v0)) )) ))
(assert (forall ((?v0 Nat_nat_prod_nat_nat_prod_prod$) (?v1 Nat_nat_prod$) (?v2 Nat_nat_prod$)) (=> (= ?v0 (pair$a ?v1 ?v2)) (= (snd$a ?v0) ?v2)) ))
(assert (forall ((?v0 Nat_nat_prod$) (?v1 Nat$) (?v2 Nat$)) (=> (= ?v0 (pair$ ?v1 ?v2)) (= (snd$ ?v0) ?v2)) ))
(assert (= (fun_app$f size_bool$ false) zero$))
(assert (= (fun_app$f size_bool$ true) zero$))
(assert (= size_bool$ (rec_bool$ zero$ zero$)))
(assert (forall ((?v0 Nat_bool_fun$)) (=> (and (not (fun_app$ ?v0 zero$)) (exists ((?v1 Nat$)) (fun_app$ ?v0 ?v1) )) (exists ((?v1 Nat$)) (and (not (fun_app$ ?v0 ?v1)) (fun_app$ ?v0 (suc$ ?v1))) )) ))
(assert (forall ((?v0 Nat$) (?v1 Nat$)) (! (= (fun_app$f (rec_bool$ ?v0 ?v1) true) ?v0) :pattern ((rec_bool$ ?v0 ?v1)))))
(assert (forall ((?v0 Nat$) (?v1 Nat$)) (! (= (fun_app$f (rec_bool$ ?v0 ?v1) false) ?v1) :pattern ((rec_bool$ ?v0 ?v1)))))
(assert (forall ((?v0 Nat$)) (=> (and (=> (= ?v0 zero$) false) (forall ((?v1 Nat$)) (=> (= ?v0 (suc$ ?v1)) false) )) false) ))
(assert (forall ((?v0 Nat_nat_prod$)) (=> (forall ((?v1 Nat$) (?v2 Nat$)) (=> (= ?v0 (pair$ ?v1 ?v2)) false) ) false) ))
(assert (= size$ (rec_bool$ zero$ zero$)))
(assert (not (fun_app$ (less$ one$) one$)))
(assert (= (fun_app$f size$ false) zero$))
(assert (= (fun_app$f size$ true) zero$))
(assert (forall ((?v0 Bool)) (! (= (fun_app$f size$ ?v0) zero$) :pattern ((fun_app$f size$ ?v0)))))
(assert (not (fun_app$ (less$ zero$) zero$)))
(assert (forall ((?v0 Nat_nat_prod_nat_nat_prod_prod$)) (! (= (swap$ ?v0) (pair$a (snd$a ?v0) (fst$a ?v0))) :pattern ((swap$ ?v0)))))
(assert (forall ((?v0 Nat_nat_prod$)) (! (= (swap$a ?v0) (pair$ (snd$ ?v0) (fst$ ?v0))) :pattern ((swap$a ?v0)))))
(assert (forall ((?v0 Nat_nat_prod$)) (= (swap$a (swap$a ?v0)) ?v0) ))
(assert (forall ((?v0 Nat_nat_prod_nat_nat_prod_prod$)) (= (swap$ (swap$ ?v0)) ?v0) ))
(assert (forall ((?v0 Nat_nat_prod$) (?v1 Nat_nat_prod$)) (= (swap$ (pair$a ?v0 ?v1)) (pair$a ?v1 ?v0)) ))
(assert (forall ((?v0 Nat$) (?v1 Nat$)) (= (swap$a (pair$ ?v0 ?v1)) (pair$ ?v1 ?v0)) ))
(check-sat)
(exit)

